c FILE: i080-212

c SOURCE: From steinlib

c DESCRIPTION: Steinlib instance with 80 nodes and 350 edges.

p edge 80 350
e 1 7
e 1 8
e 1 10
e 1 13
e 1 14
e 1 28
e 1 38
e 1 43
e 1 59
e 1 62
e 2 10
e 2 29
e 2 33
e 2 40
e 2 42
e 2 49
e 2 55
e 2 62
e 2 68
e 2 80
e 3 7
e 3 10
e 3 30
e 3 41
e 3 50
e 3 59
e 3 66
e 3 71
e 3 78
e 4 5
e 4 8
e 4 31
e 4 34
e 4 46
e 4 67
e 5 28
e 5 36
e 5 41
e 5 49
e 5 73
e 6 25
e 6 49
e 6 52
e 6 54
e 6 70
e 6 73
e 7 16
e 7 18
e 7 19
e 7 25
e 7 27
e 7 38
e 7 44
e 7 51
e 7 53
e 7 63
e 7 67
e 7 70
e 7 80
e 8 13
e 8 15
e 8 21
e 8 43
e 8 50
e 8 66
e 8 78
e 9 12
e 9 13
e 9 25
e 9 28
e 9 39
e 9 41
e 9 51
e 9 58
e 9 66
e 9 80
e 10 12
e 10 14
e 10 19
e 10 27
e 10 44
e 10 66
e 10 73
e 10 76
e 11 21
e 11 29
e 11 31
e 11 40
e 11 51
e 11 55
e 11 57
e 12 13
e 12 28
e 12 34
e 12 38
e 12 47
e 12 52
e 12 80
e 13 24
e 13 38
e 13 48
e 13 52
e 13 56
e 13 78
e 14 16
e 14 21
e 14 25
e 14 29
e 14 49
e 14 52
e 14 55
e 14 58
e 14 63
e 14 65
e 14 69
e 14 71
e 14 75
e 15 21
e 15 35
e 15 57
e 15 66
e 15 68
e 15 76
e 15 80
e 16 18
e 16 30
e 16 48
e 16 57
e 16 58
e 16 72
e 16 75
e 16 76
e 16 79
e 17 20
e 17 35
e 17 52
e 17 61
e 17 67
e 18 35
e 18 46
e 18 56
e 18 68
e 19 27
e 19 30
e 19 38
e 19 68
e 20 21
e 20 36
e 20 59
e 20 64
e 20 66
e 21 25
e 21 26
e 21 36
e 21 56
e 21 58
e 21 65
e 21 73
e 21 80
e 22 34
e 22 36
e 22 44
e 22 51
e 22 53
e 22 60
e 22 77
e 23 29
e 23 42
e 24 43
e 24 53
e 24 59
e 24 62
e 24 67
e 24 73
e 24 78
e 24 79
e 25 30
e 25 32
e 25 54
e 25 61
e 25 65
e 25 68
e 26 31
e 26 54
e 26 58
e 26 59
e 26 60
e 26 67
e 27 32
e 27 45
e 27 69
e 27 71
e 27 78
e 28 49
e 28 59
e 28 74
e 28 78
e 29 32
e 29 54
e 29 65
e 29 76
e 30 54
e 30 64
e 30 77
e 30 80
e 31 38
e 31 51
e 31 60
e 31 79
e 31 80
e 32 36
e 32 58
e 32 62
e 32 64
e 32 70
e 32 79
e 33 45
e 33 50
e 33 59
e 33 63
e 33 64
e 33 70
e 33 73
e 34 35
e 34 38
e 34 43
e 34 51
e 34 56
e 34 60
e 35 36
e 35 38
e 35 56
e 35 72
e 36 55
e 36 59
e 36 73
e 36 74
e 37 39
e 37 51
e 37 52
e 37 53
e 37 73
e 37 76
e 37 77
e 37 80
e 38 40
e 38 42
e 38 45
e 38 47
e 38 48
e 38 54
e 38 80
e 39 56
e 39 58
e 39 63
e 39 69
e 39 76
e 40 53
e 40 61
e 40 79
e 41 56
e 41 71
e 41 79
e 42 49
e 42 54
e 42 56
e 43 45
e 43 50
e 43 52
e 43 71
e 44 50
e 44 55
e 44 64
e 44 77
e 44 78
e 45 47
e 45 51
e 45 77
e 46 55
e 46 77
e 46 80
e 47 50
e 47 52
e 47 60
e 47 74
e 47 77
e 48 49
e 48 56
e 48 65
e 49 53
e 49 61
e 50 53
e 50 61
e 50 63
e 50 69
e 50 73
e 50 77
e 51 52
e 51 53
e 51 72
e 51 77
e 52 56
e 52 57
e 52 60
e 52 62
e 52 69
e 52 70
e 53 63
e 54 61
e 54 69
e 54 77
e 55 66
e 55 69
e 55 72
e 55 78
e 56 59
e 56 65
e 56 66
e 56 74
e 56 75
e 57 68
e 57 74
e 58 64
e 58 69
e 58 79
e 59 64
e 59 75
e 59 77
e 60 66
e 60 71
e 61 68
e 62 65
e 62 68
e 62 72
e 63 67
e 63 73
e 63 79
e 64 65
e 64 66
e 64 70
e 64 76
e 64 79
e 67 76
e 69 78
e 70 76
e 70 80
e 74 79
e 76 77
e 76 78
e 77 80
